
******************************************************************************
This program contains Ipopt, a library for large-scale nonlinear optimization.
 Ipopt is released as open source code under the Eclipse Public License (EPL).
         For more information visit http://projects.coin-or.org/Ipopt

This version of Ipopt was compiled from source code available at
    https://github.com/IDAES/Ipopt as part of the Institute for the Design of
    Advanced Energy Systems Process Systems Engineering Framework (IDAES PSE
    Framework) Copyright (c) 2018-2019. See https://github.com/IDAES/idaes-pse.

This version of Ipopt was compiled using HSL, a collection of Fortran codes
    for large-scale scientific computation.  All technical papers, sales and
    publicity material resulting from use of the HSL codes within IPOPT must
    contain the following acknowledgement:
        HSL, a collection of Fortran codes for large-scale scientific
        computation. See http://www.hsl.rl.ac.uk.
******************************************************************************

This is Ipopt version 3.13.2, running with linear solver ma27.

Number of nonzeros in equality constraint Jacobian...:      928
Number of nonzeros in inequality constraint Jacobian.:        0
Number of nonzeros in Lagrangian Hessian.............:      806

Total number of variables............................:      403
                     variables with only lower bounds:      124
                variables with lower and upper bounds:      217
                     variables with only upper bounds:        0
Total number of equality constraints.................:      402
Total number of inequality constraints...............:        0
        inequality constraints with only lower bounds:        0
   inequality constraints with lower and upper bounds:        0
        inequality constraints with only upper bounds:        0

iter    objective    inf_pr   inf_du lg(mu)  ||d||  lg(rg) alpha_du alpha_pr  ls
   0  0.0000000e+00 1.26e+00 1.42e-14  -1.0 0.00e+00    -  0.00e+00 0.00e+00   0
   1  3.3382374e-02 9.74e-01 5.99e+03  -1.0 7.14e+04    -  5.28e-01 2.40e-01h  2
   2  1.1371070e-01 7.23e-01 8.49e+04  -1.0 4.79e+04    -  5.85e-01 2.74e-01h  1
   3  1.2063354e-01 7.09e-01 8.71e+04  -1.0 1.56e+05    -  5.90e-01 1.90e-02h  1
   4  9.1787650e+00 1.78e-01 7.78e+04  -1.0 1.71e+05    -  6.13e-01 9.90e-01h  1
   5  1.1251764e+01 1.58e-02 6.77e+03  -1.0 1.88e+04    -  9.38e-01 9.90e-01h  1
   6  1.1296199e+01 2.81e-04 1.51e+02  -1.0 4.51e+02    -  9.89e-01 9.90e-01h  1
   7  1.1299455e+01 2.72e-04 1.62e+07  -1.0 9.30e+02    -  9.05e-01 3.09e-02f  6
   8  1.2248422e+01 1.49e-03 1.36e+07  -1.0 6.63e+04    -  9.71e-02 1.24e-01f  4
   9  1.1990409e+01 1.64e-04 1.37e+05  -1.0 2.22e+03    -  9.90e-01 9.90e-01h  1
iter    objective    inf_pr   inf_du lg(mu)  ||d||  lg(rg) alpha_du alpha_pr  ls
  10  1.1870005e+01 2.51e-05 5.70e+06  -1.0 1.04e+03    -  9.93e-01 9.90e-01h  1
  11  1.1854630e+01 3.85e-07 2.18e+09  -1.0 1.34e+02    -  1.00e+00 9.90e-01h  1
  12  1.1854190e+01 4.04e-09 2.18e+11  -1.0 3.83e+00    -  1.00e+00 9.90e-01h  1
In iteration 12, 31 Slacks too small, adjusting variable bounds
  13  1.1854186e+01 4.00e-11 2.18e+13  -1.0 3.97e-02    -  1.00e+00 9.90e-01h  1
  14  1.1854186e+01 1.21e-11 1.21e-01  -1.0 3.97e-04    -  1.00e+00 1.00e+00h  1
  15  1.1854049e+01 2.21e-11 2.17e+13  -9.0 1.11e+04    -  9.78e-01 1.06e-04f 13
  16  1.1853980e+01 2.81e-11 2.22e+13  -9.0 8.21e+03    -  9.88e-01 7.19e-05f 14
  17  1.1853912e+01 3.43e-11 2.22e+13  -9.0 6.08e+03    -  9.93e-01 9.70e-05f 14
  18  1.1853843e+01 3.91e-11 2.22e+13  -9.0 5.25e+03    -  1.00e+00 1.12e-04f 14
  19  1.1853809e+01 4.04e-11 2.22e+13  -9.0 4.97e+03    -  1.00e+00 5.94e-05f 15
iter    objective    inf_pr   inf_du lg(mu)  ||d||  lg(rg) alpha_du alpha_pr  ls
  20  1.1299924e+01 8.65e-04 2.06e+11  -9.0 4.88e+03    -  1.00e+00 9.91e-01f  1
  21  1.1295277e+01 4.74e-07 2.92e-02  -9.0 4.04e+01    -  1.00e+00 1.00e+00h  1
  22  1.1295277e+01 5.61e-12 6.75e-09  -9.0 8.01e-04    -  1.00e+00 1.00e+00h  1

Number of Iterations....: 22

                                   (scaled)                 (unscaled)
Objective...............:   1.1295276887359291e+01    1.1295276887359291e+01
Dual infeasibility......:   6.7460940731945396e-09    6.7460940731945396e-09
Constraint violation....:   5.6092908096161409e-12    5.6092908096161409e-12
Complementarity.........:   9.0921867964451086e-10    9.0921867964451086e-10
Overall NLP error.......:   5.2280666981428183e-11    6.7460940731945396e-09


Number of objective function evaluations             = 115
Number of objective gradient evaluations             = 23
Number of equality constraint evaluations            = 115
Number of inequality constraint evaluations          = 0
Number of equality constraint Jacobian evaluations   = 23
Number of inequality constraint Jacobian evaluations = 0
Number of Lagrangian Hessian evaluations             = 22
Total CPU secs in IPOPT (w/o function evaluations)   =      0.057
Total CPU secs in NLP function evaluations           =      1.097

EXIT: Optimal Solution Found.
